Version identifier: 22.1.0.0 | 2022-03-09 | 1a383f8ce
CPXPARAM_Threads                                 1
CPXPARAM_MIP_Strategy_VariableSelect             3
CPXPARAM_TimeLimit                               599.99997859500002
1 of 1 MIP starts provided solutions.
MIP start 'm1' defined initial solution with objective 19.0000.
Tried aggregator 2 times.
MIP Presolve eliminated 43 rows and 1 columns.
MIP Presolve added 36 rows and 9 columns.
MIP Presolve modified 52 coefficients.
Aggregator did 9 substitutions.
Reduced MIP has 4505 rows, 10500 columns, and 213226 nonzeros.
Reduced MIP has 10500 binaries, 0 generals, 0 SOSs, and 0 indicators.
Presolve time = 0.28 sec. (406.99 ticks)
Probing time = 0.03 sec. (24.63 ticks)
Tried aggregator 1 time.
Detecting symmetries...
MIP Presolve modified 16 coefficients.
Reduced MIP has 4505 rows, 10500 columns, and 213394 nonzeros.
Reduced MIP has 10500 binaries, 0 generals, 0 SOSs, and 0 indicators.
Presolve time = 0.21 sec. (323.00 ticks)
Probing time = 0.03 sec. (24.64 ticks)
Clique table members: 3490.
MIP emphasis: balance optimality and feasibility.
MIP search method: dynamic search.
Parallel mode: none, using 1 thread.
Root relaxation solution time = 4.20 sec. (4933.39 ticks)

        Nodes                                         Cuts/
   Node  Left     Objective  IInf  Best Integer    Best Bound    ItCnt     Gap

*     0+    0                           19.0000   125250.0000              --- 
      0     0      500.0000  2193       19.0000      500.0000    10014     --- 
      0     0      500.0000   243       19.0000      Cuts: 10    12306     --- 
*     0+    0                          500.0000      500.0000             0.00%
      0     0        cutoff            500.0000      500.0000    12306    0.00%
Elapsed time = 56.23 sec. (58356.40 ticks, tree = 0.01 MB, solutions = 2)

Clique cuts applied:  9
Zero-half cuts applied:  1

Root node processing (before b&c):
  Real time             =   56.24 sec. (58356.82 ticks)
Sequential b&c:
  Real time             =    0.00 sec. (0.00 ticks)
                          ------------
Total (root+branch&cut) =   56.24 sec. (58356.82 ticks)
Primal:	500
Dual:	500
Status:	Optimal
Time:	56.26
Sequence:
	11
	15
	1
	11
	15
	1
	11
	15
	1
	11
	15
	1
	14
	12
	19
	16
	12
	19
	16
	12
	19
	5
	0
	10
	2
	5
	19
	12
	16
	1
	12
	16
	19
	12
	16
	19
	12
	16
	1
	12
	7
	1
	12
	7
	1
	12
	16
	1
	12
	16
	1
	12
	16
	1
	12
	14
	1
	0
	15
	10
	0
	15
	10
	0
	15
	10
	4
	12
	19
	14
	12
	19
	16
	12
	19
	7
	12
	19
	7
	4
	17
	14
	6
	8
	7
	5
	8
	5
	7
	8
	3
	7
	17
	4
	7
	8
	3
	3
	18
	2
	3
	18
	2
	4
	18
	2
	3
	18
	4
	2
	18
	4
	2
	18
	3
	4
	18
	2
	3
	18
	2
	4
	18
	2
	4
	10
	12
	13
	1
	16
	12
	19
	5
	12
	10
	4
	15
	10
	0
	15
	1
	11
	2
	19
	11
	2
	19
	11
	2
	1
	0
	7
	9
	6
	11
	9
	13
	11
	9
	6
	11
	9
	13
	11
	9
	13
	11
	9
	13
	11
	9
	13
	11
	9
	13
	0
	10
	15
	0
	10
	15
	0
	10
	15
	0
	10
	15
	0
	1
	16
	12
	1
	13
	12
	10
	13
	0
	10
	15
	0
	10
	6
	12
	1
	16
	12
	19
	14
	12
	1
	16
	12
	1
	7
	15
	1
	4
	2
	18
	4
	2
	18
	3
	2
	18
	4
	2
	18
	4
	2
	18
	3
	3
	17
	7
	6
	17
	14
	3
	9
	11
	13
	9
	11
	13
	9
	11
	13
	9
	0
	7
	9
	13
	11
	9
	4
	7
	8
	5
	13
	8
	16
	3
	8
	14
	5
	8
	14
	4
	8
	14
	4
	17
	7
	13
	17
	7
	13
	17
	7
	5
	8
	14
	13
	17
	7
	5
	8
	7
	5
	8
	16
	6
	17
	7
	5
	8
	4
	7
	17
	13
	16
	8
	13
	16
	8
	4
	7
	8
	5
	14
	8
	4
	7
	8
	13
	16
	8
	6
	16
	8
	5
	14
	17
	13
	14
	8
	5
	7
	17
	6
	14
	8
	5
	7
	8
	5
	7
	9
	0
	7
	9
	0
	14
	9
	0
	7
	9
	0
	16
	19
	12
	16
	19
	12
	16
	1
	12
	13
	10
	0
	5
	9
	14
	0
	9
	3
	14
	8
	5
	4
	10
	12
	5
	13
	17
	14
	3
	17
	6
	16
	8
	13
	14
	17
	4
	14
	8
	5
	14
	17
	13
	14
	17
	13
	14
	17
	3
	16
	8
	4
	16
	8
	5
	14
	17
	6
	16
	8
	6
	16
	8
	13
	7
	17
	4
	14
	17
	3
	4
	18
	2
	3
	18
	2
	4
	18
	2
	4
	18
	2
	3
	18
	3
	4
	8
	7
	13
	8
	7
	6
	17
	7
	6
	17
	7
	6
	17
	7
	5
	8
	16
	3
	17
	13
	14
	8
	13
	7
	17
	6
	3
	10
	0
	15
	10
	0
	15
	10
	0
	15
	10
	0
	15
	1
	11
	15
	1
	11
	2
	19
	11
	2
	19
	11
	2
	19
	11
	4
	9
	11
	6
	9
	11
	6
	9
	11
	6
	9
	11
